webassembly/ejemplos_dzn/6/folder6_json_53.dzn
TERM = { '.', 's(2)', 's(5)', 's(4)', 'in_1', 'in_2', 'in_4', 'in_3', 's(1)', 's(0)', 's(3)', 'in_0'};
null = '.';
s = 6;
n = 10;
ndeps = 3;
max_registers_sz = 3;
NR = 0;
registers = [| |];
dependencies = [|'call[function_index(0)]_0', 'i32.load8_u_1', |'i32.load8_u_1', 'i32.store_3', |'i32.store_3', 'i32.load8_s_5'|];
GET_ENUM = { GET1, GET2, GET3};
SET_ENUM = { SET1, SET2, SET3};
TEE_ENUM = { TEE1, TEE2, TEE3};
N = 6;
OP = { 'call[function_index(0)]_0', 'i32.load8_u_1', 'i32.sub_0', 'i32.store_3', 'i32.sub_1', 'i32.load8_s_5' };
in_ops = [2, 1, 2, 2, 2, 1 ];
out_ops = [2, 1, 1, 0, 1, 1 ];
in1 = ['in_0', 's(1)', 's(2)', 's(3)', 'in_3', 's(4)' ];
in2 = ['in_1', '.', 's(0)', 'in_2', 'in_4', '.' ];
in3 = ['.', '.', '.', '.', '.', '.' ];
out1 = ['s(1)', 's(2)', 's(3)', '.', 's(4)', 's(5)' ];
out2 = ['s(0)', '.', '.', '.', '.', '.' ];
out3 = ['.', '.', '.', '.', '.', '.' ];
comm = [false, false, false, false, false, false ];
gas = [1, 1, 1, 1, 1, 1 ];
sz = [1, 1, 1, 1, 1, 1 ];
stor = [true, false, false, true, false, false ];
lb = [ 1, 1, 1, 1, 1, 1 ];
ub = [ 6, 6, 6, 6, 6, 6 ];
startstack = [ 'in_0', 'in_1', 'in_2', 'in_3', 'in_4', null, null, null, null, null ];
endstack = [ 's(5)', null, null, null, null, null, null, null, null, null ];
