webassembly/ejemplos_results/folder6_json_53.txt
value = 6;
fgas = [1, 1, 1, 1, 1, 1];
fsize = [1, 1, 1, 1, 1, 1];
states = 
[|   in_0,   in_1, in_2, in_3, in_4, '.', '.', '.', '.', '.'
 | 's(1)', 's(0)', in_0, in_3, in_4, '.', '.', '.', '.', '.'
 | 's(2)', 's(0)', in_0, in_3, in_4, '.', '.', '.', '.', '.'
 | 's(3)',   in_2, in_3, in_4,  '.', '.', '.', '.', '.', '.'
 |   in_3,   in_4,  '.',  '.',  '.', '.', '.', '.', '.', '.'
 | 's(4)',   in_0,  '.',  '.',  '.', '.', '.', '.', '.', '.'
 | 's(5)',    '.',  '.',  '.',  '.', '.', '.', '.', '.', '.'
 |];
register_states = 
[| '.', '.', '.'
 | '.', '.', '.'
 | '.', '.', '.'
 | '.', '.', '.'
 | '.', '.', '.'
 | '.', '.', '.'
 | '.', '.', '.'
 |];
program = [O('call[function_index(0)]_0'), O('i32.load8_u_1'), O('i32.sub_0'), O('i32.store_3'), O('i32.sub_1'), O('i32.load8_s_5')];
% time elapsed: 0.08 s
----------
==========
% time elapsed: 0.08 s
% [value > 5]
